New structure
1.0
       10.0000000000         0.0000000000         0.0000000000
        0.0000000000        10.0000000000         0.0000000000
        0.0000000000         0.0000000000        10.0000000000
    H
    2
Direct
     0.500000000         0.500000000         0.500000000
     0.600000024         0.500000000         0.500000000
